language ESSENCE' 1.0
letting AssignmentMatrix be [[1, 0, 0, 1, 1, 1, 1, 1, 0, 0, 1, 0, 1, 0, 1, 0, 1, 0, 0, 0, 0, 0, 0], 
[0, 1, 0, 0, 0, 0, 0, 0, 0, 0, 1, 0, 0, 1, 0, 1, 0, 0, 1, 1, 0, 1, 0], 
[0, 0, 0, 0, 0, 0, 0, 0, 0, 0, 0, 0, 0, 0, 0, 0, 0, 0, 0, 0, 0, 0, 0], 
[0, 0, 0, 0, 0, 0, 0, 0, 1, 1, 0, 0, 0, 0, 0, 0, 0, 0, 0, 0, 1, 0, 1], 
[0, 0, 0, 0, 0, 0, 0, 0, 0, 0, 0, 0, 0, 0, 0, 0, 1, 1, 0, 0, 0, 0, 0]]
letting CPU be [2, 2, 63, 2, 2, 2, 2, 2, 4, 4, 4, 28, 2, 2, 2, 2, 8, 4, 2, 4, 4, 2, 4]
letting Memory be [3750, 3750, 488003, 3750, 3750, 3750, 3750, 3750, 7500, 7500, 15000, 976000, 3750, 3750, 3750, 3750, 15000, 7500, 3750, 7500, 7500, 3750, 7500]
letting Price be [116, 116, 7, 116, 116, 116, 116, 116, 210, 210, 350, 1, 116, 116, 116, 116, 420, 210, 116, 210, 210, 126, 210]
letting Storage be [2000, 2000, 12003, 2000, 2000, 2000, 2000, 2000, 2000, 2000, 4000, 12001, 2000, 2000, 2000, 2000, 2000, 2000, 2000, 2000, 2000, 2000, 2000]
letting VMType be [433, 433, 1, 433, 433, 433, 433, 433, 341, 341, 316, 1, 433, 433, 433, 433, 278, 341, 433, 341, 341, 464, 341]
